\ Model MASTER
\ LP format - for model browsing. Use MPS format to capture full model detail.
Minimize
  66 y_0 + 42 y_1 + 81 y_2 + 24 y_3 + 78 y_4 + 92 y_5 + 114 y_6 + 62 y_7
   + 60 y_8 + 44 y_9 + 28 y_10 + 83 y_11 + 83 y_12 + 60 y_13 + 74 y_14
   + 74 y_15 + 60 y_16 + 93 y_17 + 61 y_18 + 61 y_19 + 44 y_20 + 62 y_21
   + 64 y_22 + 62 y_23 + 64 y_24 + 88 y_25 + 66 y_26 + 64 y_27 + 66 y_28
   + 61 y_29 + 53 y_30 + 53 y_31 + 61 y_32 + 42 y_33 + 42 y_34 + 97 y_35
   + 112 y_36 + 97 y_37 + 64 y_38 + 93 y_39 + 84 y_40 + 87 y_41 + 84 y_42
   + 80 y_43 + 70 y_44 + 75 y_45 + 75 y_46 + 80 y_47 + 68 y_48 + 61 y_49
   + 72 y_50 + 57 y_51 + 61 y_52 + 94 y_53 + 107 y_54 + 57 y_55 + 72 y_56
   + 61 y_57 + 55 y_58 + 93 y_59 + 55 y_60 + 93 y_61 + 89 y_62 + 89 y_63
   + 102 y_64 + 70 y_65 + 74 y_66 + 74 y_67 + 69 y_68 + 80 y_69 + 60 y_70
   + 89 y_71 + 99 y_72 + 67 y_73 + 60 y_74 + 104 y_75 + 67 y_76 + 55 y_77
   + 61 y_78 + 68 y_79 + 55 y_80 + 71 y_81 + 73 y_82 + 71 y_83 + 71 y_84
   + 68 y_85 + 61 y_86 + 85 y_87 + 107 y_88 + 107 y_89 + 101 y_90 + 85 y_91
   + 96 y_92 + 79 y_93 + 79 y_94 + 62 y_95 + 62 y_96 + 82 y_97 + 83 y_98
   + 83 y_99 + 93 y_100 + 93 y_101 + 93 y_102 + 93 y_103
Subject To
 cust_2: y_0 + y_10 + y_24 + y_27 + y_29 + y_32 + y_33 + y_34 + y_49 + y_52
   + y_57 + y_70 + y_74 + y_77 + y_80 >= 1
 cust_3: y_1 >= 1
 cust_4: y_0 + y_50 + y_56 + y_100 + y_101 >= 1
 cust_5: y_2 + y_20 + y_51 + y_55 + y_58 + y_60 + y_78 + y_86 >= 1
 cust_6: y_2 + y_25 + y_30 + y_31 + y_49 + y_52 + y_59 + y_61 + y_64 + y_65
   + y_68 + y_71 + y_79 + y_82 + y_83 + y_95 + y_96 + y_97 + y_100 + y_101
   >= 1
 cust_7: y_3 >= 1
 cust_8: y_4 + y_9 + y_13 + y_16 + y_21 + y_22 + y_23 + y_30 + y_31 + y_43
   + y_44 + y_47 + y_48 + y_65 + y_68 + y_77 + y_79 + y_80 + y_82 + y_83
   + y_85 + y_87 + y_91 + y_92 >= 1
 cust_9: y_5 + y_38 + y_81 + y_84 >= 1
 cust_10: y_4 + y_17 + y_22 + y_39 + y_44 + y_48 + y_53 + y_54 + y_72
   + y_79 + y_82 + y_88 + y_93 + y_94 + y_97 + y_98 + y_99 + y_100 + y_101
   + y_102 + y_103 >= 1
 cust_11: y_4 + y_18 + y_19 + y_21 + y_23 + y_33 + y_34 + y_40 + y_41
   + y_42 + y_45 + y_46 + y_53 + y_54 + y_58 + y_60 + y_71 + y_73 + y_76
   + y_83 + y_89 + y_90 + y_97 + y_102 + y_103 >= 1
 cust_12: y_5 + y_14 + y_15 + y_29 + y_32 + y_35 + y_36 + y_37 + y_45
   + y_46 + y_51 + y_55 + y_64 + y_66 + y_67 + y_69 + y_88 + y_89 + y_90
   >= 1
 cust_13: y_6 + y_8 + y_11 + y_12 + y_14 + y_15 + y_17 + y_18 + y_19 + y_25
   + y_26 + y_28 + y_35 + y_36 + y_37 + y_39 + y_40 + y_41 + y_42 + y_43
   + y_45 + y_46 + y_47 + y_50 + y_53 + y_54 + y_56 + y_59 + y_61 + y_62
   + y_63 + y_64 + y_66 + y_67 + y_69 + y_70 + y_71 + y_72 + y_73 + y_74
   + y_75 + y_76 + y_87 + y_88 + y_89 + y_90 + y_91 + y_92 >= 1
 cust_14: y_6 + y_11 + y_12 + y_13 + y_16 + y_24 + y_27 + y_35 + y_36
   + y_37 + y_39 + y_40 + y_41 + y_42 + y_44 + y_48 + y_59 + y_61 + y_62
   + y_63 + y_65 + y_68 + y_81 + y_84 + y_87 + y_88 + y_89 + y_90 + y_91
   + y_92 + y_97 + y_98 + y_99 >= 1
 cust_15: y_7 + y_75 + y_85 + y_93 + y_94 + y_95 + y_96 + y_98 + y_99
   + y_102 + y_103 >= 1
 cust_16: y_6 + y_26 + y_28 + y_57 + y_62 + y_63 + y_66 + y_67 + y_69
   + y_72 + y_73 + y_76 + y_78 + y_86 >= 1
 vehicle: - y_0 - y_1 - y_2 - y_3 - y_4 - y_5 - y_6 - y_7 - y_8 - y_9
   - y_10 - y_11 - y_12 - y_13 - y_14 - y_15 - y_16 - y_17 - y_18 - y_19
   - y_20 - y_21 - y_22 - y_23 - y_24 - y_25 - y_26 - y_27 - y_28 - y_29
   - y_30 - y_31 - y_32 - y_33 - y_34 - y_35 - y_36 - y_37 - y_38 - y_39
   - y_40 - y_41 - y_42 - y_43 - y_44 - y_45 - y_46 - y_47 - y_48 - y_49
   - y_50 - y_51 - y_52 - y_53 - y_54 - y_55 - y_56 - y_57 - y_58 - y_59
   - y_60 - y_61 - y_62 - y_63 - y_64 - y_65 - y_66 - y_67 - y_68 - y_69
   - y_70 - y_71 - y_72 - y_73 - y_74 - y_75 - y_76 - y_77 - y_78 - y_79
   - y_80 - y_81 - y_82 - y_83 - y_84 - y_85 - y_86 - y_87 - y_88 - y_89
   - y_90 - y_91 - y_92 - y_93 - y_94 - y_95 - y_96 - y_97 - y_98 - y_99
   - y_100 - y_101 - y_102 - y_103 >= -8
Bounds
End
